N = 100;
MinK = 4;
Capacity = 1000;

Scale = 10;
DistanceRoundingMode = Floor;
X = array1d(0..N, [40, 25, 22, 22, 20, 20, 18, 15, 15, 10, 10, 8, 8, 5, 5, 2, 0, 0, 44, 42, 42, 40, 40, 38, 38, 35, 95, 95, 92, 90, 88, 88, 87, 85, 85, 67, 65, 65, 62, 60, 60, 58, 55, 55, 55, 20, 18, 2, 42, 42, 72, 55, 25, 20, 55, 30, 50, 30, 15, 10, 15, 45, 65, 65, 45, 35, 41, 64, 40, 31, 35, 65, 63, 2, 20, 5, 60, 23, 8, 6, 47, 49, 27, 37, 57, 63, 21, 12, 24, 67, 37, 49, 53, 61, 57, 56, 55, 4, 26, 26, 31]);
Y = array1d(0..N, [50, 85, 75, 85, 80, 85, 75, 75, 80, 35, 40, 40, 45, 35, 45, 40, 40, 45, 5, 10, 15, 5, 15, 5, 15, 5, 30, 35, 30, 35, 30, 35, 30, 25, 35, 85, 85, 82, 80, 80, 85, 75, 80, 85, 82, 82, 80, 45, 5, 12, 35, 20, 30, 50, 60, 60, 35, 25, 10, 20, 60, 65, 35, 20, 30, 40, 37, 42, 60, 52, 69, 55, 65, 60, 20, 5, 12, 3, 56, 68, 47, 58, 43, 31, 29, 23, 24, 24, 58, 5, 47, 42, 43, 52, 48, 37, 54, 18, 52, 35, 67]);

Demands = array1d(1..N, [20, 30, 10, 40, 20, 20, 20, 10, 20, 30, 40, 20, 10, 10, 20, 20, 20, 20, 40, 10, 10, 40, 30, 10, 20, 30, 20, 10, 10, 10, 20, 10, 10, 30, 20, 40, 10, 30, 10, 30, 20, 10, 20, 10, 10, 10, 10, 10, 10, 30, 19, 3, 5, 16, 16, 19, 23, 20, 19, 17, 9, 3, 6, 17, 16, 16, 9, 21, 27, 23, 14, 8, 5, 8, 16, 31, 7, 27, 30, 13, 10, 9, 14, 18, 2, 28, 13, 19, 25, 6, 13, 14, 3, 23, 6, 26, 35, 9, 15, 3]);

ServiceTimes = array1d(1..N, [10, 10, 10, 10, 10, 10, 10, 10, 10, 10, 10, 10, 10, 10, 10, 10, 10, 10, 10, 10, 10, 10, 10, 10, 10, 10, 10, 10, 10, 10, 10, 10, 10, 10, 10, 10, 10, 10, 10, 10, 10, 10, 10, 10, 10, 10, 10, 10, 10, 10, 10, 10, 10, 10, 10, 10, 10, 10, 10, 10, 10, 10, 10, 10, 10, 10, 10, 10, 10, 10, 10, 10, 10, 10, 10, 10, 10, 10, 10, 10, 10, 10, 10, 10, 10, 10, 10, 10, 10, 10, 10, 10, 10, 10, 10, 10, 10, 10, 10, 10]);

TimeWindows = array2d(1..2, 0..N, [|
    0,   0,   0,   0, 644,   0,   0,   0, 367, 371,   0, 195,   0, 653,   0, 174,   0,   0,   0,   0,   0,   0,   0, 201,   0, 784,   0,   0,   0,   0,   0,   0,   0,   0,   0,   0,   0,   0, 278,   0,   0,   0,   0,   0, 217,   0,   0,   0,   0,   0,   0,   0,   0, 375,   0, 599,   0,   0, 782,   0,   0,   0, 167,   0,   0,   0,   0, 268,   0, 157,   0,   0,   0,   0, 645,   0, 268, 764,   0, 352,   0,   0,   0,   0, 395,   0,   0, 359,   0,   0,   0,   0,  14,   0,   0,   0,   0,   0,   0, 308, 810 |
  960, 911, 919, 910, 764, 909, 916, 914, 487, 491, 918, 315, 917, 773, 914, 294, 908, 909, 904, 909, 914, 905, 915, 321, 914, 904, 891, 892, 894, 897, 898, 899, 898, 898, 902, 905, 906, 909, 398, 913, 909, 919, 916, 911, 337, 912, 912, 911, 904, 911, 914, 916, 925, 495, 931, 719, 931, 923, 902, 907, 923, 934, 287, 910, 929, 938, 936, 388, 940, 277, 930, 924, 922, 910, 765, 892, 388, 884, 917, 472, 942, 937, 935, 930, 515, 914, 917, 479, 932, 897, 945, 937, 134, 928, 932, 929, 934, 901, 935, 428, 930
|]);
